
Gurobi 10.0.1 (linux64) logging started Sun Nov 26 15:37:25 2023

Set parameter LogFile to value "ArtificialInstance/ExperimentV2/S3T5K1/AdRo/gurobi1.txt"
Gurobi Optimizer version 10.0.1 build v10.0.1rc0 (linux64)

CPU model: AMD EPYC 7H12 64-Core Processor, instruction set [SSE2|AVX|AVX2]
Thread count: 128 physical cores, 128 logical processors, using up to 32 threads

Academic license 656792 - for non-commercial use only - registered to b.___@student.vu.nl
Optimize a model with 4447 rows, 4165 columns and 16297 nonzeros
Model fingerprint: 0xd3f4a6b3
Variable types: 1 continuous, 4164 integer (4164 binary)
Coefficient statistics:
  Matrix range     [1e+00, 4e+01]
  Objective range  [1e+00, 2e+01]
  Bounds range     [1e+00, 1e+00]
  RHS range        [1e+00, 1e+00]
Presolve removed 478 rows and 446 columns
Presolve time: 0.06s
Presolved: 3969 rows, 3719 columns, 14937 nonzeros
Variable types: 1 continuous, 3718 integer (3718 binary)
Found heuristic solution: objective 304.0253816

Root relaxation: objective 5.845739e+01, 3922 iterations, 0.24 seconds (0.20 work units)

    Nodes    |    Current Node    |     Objective Bounds      |     Work
 Expl Unexpl |  Obj  Depth IntInf | Incumbent    BestBd   Gap | It/Node Time

     0     0   58.45739    0  361  304.02538   58.45739  80.8%     -    0s
H    0     0                     290.1647565   58.45739  79.9%     -    0s
H    0     0                      94.0906330   58.45739  37.9%     -    0s
     0     0   59.52526    0  640   94.09063   59.52526  36.7%     -    0s
H    0     0                      75.5609268   59.52526  21.2%     -    0s
H    0     0                      64.7481420   59.52526  8.07%     -    0s
     0     0   60.48452    0  721   64.74814   60.48452  6.58%     -    0s
     0     0   60.48452    0  346   64.74814   60.48452  6.58%     -    1s
     0     0   60.48452    0  687   64.74814   60.48452  6.58%     -    1s
     0     0   60.48452    0  687   64.74814   60.48452  6.58%     -    1s
H    0     0                      63.8943997   60.48452  5.34%     -    1s
H    0     0                      63.2415085   60.48452  4.36%     -    1s
     0     0   61.86330    0  713   63.24151   61.86330  2.18%     -    1s
     0     0   61.86330    0  692   63.24151   61.86330  2.18%     -    1s
H    0     0                      63.0621730   61.86330  1.90%     -    1s

Cutting planes:
  Gomory: 3
  Clique: 16
  MIR: 3
  Zero half: 74
  RLT: 4

Explored 1 nodes (13308 simplex iterations) in 1.67 seconds (1.06 work units)
Thread count was 32 (of 128 available processors)

Solution count 8: 63.0622 63.2415 63.8944 ... 304.025

Optimal solution found (tolerance 1.00e-04)
Best objective 6.306217299360e+01, best bound 6.306217299360e+01, gap 0.0000%
